
Gurobi 9.5.2 (mac64[arm]) logging started Thu Apr 27 19:50:24 2023

Set parameter LogFile to value "Java/output/iterative_model_full/scenario_seed_0_nJob_50_machineCount_1/mip_increment_1/log.txt"
Gurobi Optimizer version 9.5.2 build v9.5.2rc0 (mac64[arm])
Thread count: 8 physical cores, 8 logical processors, using up to 8 threads
Optimize a model with 3018 rows, 25864 columns and 341724 nonzeros
Model fingerprint: 0x1c17e9a2
Variable types: 0 continuous, 25864 integer (25864 binary)
Coefficient statistics:
  Matrix range     [1e+00, 5e+02]
  Objective range  [6e+01, 2e+07]
  Bounds range     [1e+00, 1e+00]
  RHS range        [1e+00, 1e+00]
Presolve removed 120 rows and 1628 columns
Presolve time: 0.34s
Presolved: 2898 rows, 24236 columns, 313592 nonzeros
Variable types: 0 continuous, 24236 integer (24220 binary)

Root relaxation: objective 1.812255e+04, 9517 iterations, 0.94 seconds (2.52 work units)

    Nodes    |    Current Node    |     Objective Bounds      |     Work
 Expl Unexpl |  Obj  Depth IntInf | Incumbent    BestBd   Gap | It/Node Time

     0     0 18122.5473    0  168          - 18122.5473      -     -    1s
     0     0 18152.7445    0  268          - 18152.7445      -     -    2s
     0     0 18152.7446    0  268          - 18152.7446      -     -    2s
     0     0 18159.3815    0  308          - 18159.3815      -     -    3s
     0     0 18159.4437    0  331          - 18159.4437      -     -    3s
     0     0 18159.5207    0  350          - 18159.5207      -     -    3s
     0     0 18159.5214    0  351          - 18159.5214      -     -    3s
     0     0 18162.5501    0  401          - 18162.5501      -     -    4s
     0     0 18164.5232    0  364          - 18164.5232      -     -    4s
     0     0 18164.6397    0  385          - 18164.6397      -     -    4s
     0     0 18164.6444    0  396          - 18164.6444      -     -    4s
     0     0 18167.7251    0  420          - 18167.7251      -     -    5s
H    0     0                    19056.000000 18167.7251  4.66%     -    9s
     0     0 18168.0525    0  419 19056.0000 18168.0525  4.66%     -   10s
     0     0 18168.0815    0  421 19056.0000 18168.0815  4.66%     -   10s
     0     0 18168.0829    0  424 19056.0000 18168.0829  4.66%     -   10s
     0     0 18183.2858    0  435 19056.0000 18183.2858  4.58%     -   10s
     0     0 18183.2858    0  170 19056.0000 18183.2858  4.58%     -   11s
     0     0 18183.2858    0  369 19056.0000 18183.2858  4.58%     -   12s
     0     0 18185.8849    0  390 19056.0000 18185.8849  4.57%     -   12s
     0     0 18188.9784    0  431 19056.0000 18188.9784  4.55%     -   12s
     0     0 18189.1436    0  439 19056.0000 18189.1436  4.55%     -   12s
     0     0 18189.2432    0  443 19056.0000 18189.2432  4.55%     -   12s
     0     0 18189.2462    0  444 19056.0000 18189.2462  4.55%     -   12s
     0     0 18209.9960    0  498 19056.0000 18209.9960  4.44%     -   13s
     0     0 18213.2249    0  511 19056.0000 18213.2249  4.42%     -   13s
     0     0 18213.8194    0  461 19056.0000 18213.8194  4.42%     -   13s
     0     0 18213.9233    0  476 19056.0000 18213.9233  4.42%     -   13s
     0     0 18213.9313    0  478 19056.0000 18213.9313  4.42%     -   13s
     0     0 18223.4039    0  494 19056.0000 18223.4039  4.37%     -   14s
     0     0 18227.2876    0  505 19056.0000 18227.2876  4.35%     -   14s
     0     0 18227.6731    0  524 19056.0000 18227.6731  4.35%     -   14s
     0     0 18227.7363    0  529 19056.0000 18227.7363  4.35%     -   14s
     0     0 18227.7368    0  531 19056.0000 18227.7368  4.35%     -   14s
     0     0 18243.7506    0  572 19056.0000 18243.7506  4.26%     -   15s
     0     0 18246.4507    0  592 19056.0000 18246.4507  4.25%     -   15s
     0     0 18246.7486    0  580 19056.0000 18246.7486  4.25%     -   15s
     0     0 18246.8229    0  583 19056.0000 18246.8229  4.25%     -   15s
     0     0          -    0      19056.0000 18246.8229  4.25%     -   16s

Cutting planes:
  Cover: 3
  Clique: 109
  MIR: 82
  StrongCG: 64
  GUB cover: 74
  Zero half: 8

Explored 1 nodes (65307 simplex iterations) in 16.00 seconds (36.57 work units)
Thread count was 8 (of 8 available processors)

Solution count 1: 19056 

Time limit reached
Best objective 1.905600000000e+04, best bound 1.825600000000e+04, gap 4.1982%

Gurobi 9.5.2 (mac64[arm]) logging started Thu Apr 27 19:50:40 2023

Set parameter LogFile to value "Java/output/iterative_model_full/scenario_seed_0_nJob_50_machineCount_1/mip_increment_1/log.txt"
Gurobi Optimizer version 9.5.2 build v9.5.2rc0 (mac64[arm])
Thread count: 8 physical cores, 8 logical processors, using up to 8 threads
Optimize a model with 3004 rows, 17205 columns and 203648 nonzeros
Model fingerprint: 0xbeeb88dd
Variable types: 0 continuous, 17205 integer (17205 binary)
Coefficient statistics:
  Matrix range     [1e+00, 5e+02]
  Objective range  [5e+02, 3e+06]
  Bounds range     [1e+00, 1e+00]
  RHS range        [1e+00, 1e+00]
Found heuristic solution: objective 1.164622e+07
Presolve removed 719 rows and 735 columns
Presolve time: 0.21s
Presolved: 2285 rows, 16470 columns, 193712 nonzeros
Variable types: 0 continuous, 16470 integer (16466 binary)
Found heuristic solution: objective 1.143827e+07

Root relaxation: objective 1.076435e+04, 3179 iterations, 0.18 seconds (0.43 work units)

    Nodes    |    Current Node    |     Objective Bounds      |     Work
 Expl Unexpl |  Obj  Depth IntInf | Incumbent    BestBd   Gap | It/Node Time

     0     0 10764.3543    0  102 1.1438e+07 10764.3543   100%     -    0s
H    0     0                    8661332.0000 10764.3543   100%     -    0s
H    0     0                    741928.00000 10764.3543  98.5%     -    0s
H    0     0                    741840.00000 10764.3543  98.5%     -    0s
H    0     0                    40568.000000 10778.4207  73.4%     -    0s
H    0     0                    40552.000000 10778.4207  73.4%     -    0s
     0     0 10778.4207    0  189 40552.0000 10778.4207  73.4%     -    0s
H    0     0                    11368.000000 10778.4207  5.19%     -    1s
     0     0 10778.6953    0  188 11368.0000 10778.6953  5.18%     -    1s
     0     0 10778.8648    0  183 11368.0000 10778.8648  5.18%     -    1s
     0     0 10787.3800    0  193 11368.0000 10787.3800  5.11%     -    1s
     0     0 10787.3800    0  153 11368.0000 10787.3800  5.11%     -    1s
H    0     0                    11340.000000 10787.3800  4.87%     -    1s
H    0     0                    11236.000000 10787.3800  3.99%     -    1s
     0     0 10803.7414    0  222 11236.0000 10803.7414  3.85%     -    1s
     0     0 10809.5255    0  225 11236.0000 10809.5255  3.80%     -    2s
     0     0 10809.9353    0  218 11236.0000 10809.9353  3.79%     -    2s
     0     0 10809.9621    0  220 11236.0000 10809.9621  3.79%     -    2s
     0     0 10814.7511    0  220 11236.0000 10814.7511  3.75%     -    2s
     0     0 10815.3717    0  240 11236.0000 10815.3717  3.74%     -    2s
     0     0 10815.4470    0  245 11236.0000 10815.4470  3.74%     -    2s
     0     0 10815.6165    0  242 11236.0000 10815.6165  3.74%     -    2s
     0     0 10815.6165    0  248 11236.0000 10815.6165  3.74%     -    2s
     0     0 10830.4128    0  281 11236.0000 10830.4128  3.61%     -    2s
H    0     0                    11160.000000 10830.4128  2.95%     -    2s
     0     0 10835.4433    0  303 11160.0000 10835.4433  2.91%     -    2s
     0     0 10836.3141    0  297 11160.0000 10836.3141  2.90%     -    2s
     0     0 10836.5028    0  293 11160.0000 10836.5028  2.90%     -    2s
     0     0 10836.6625    0  304 11160.0000 10836.6625  2.90%     -    2s
     0     0 10836.7030    0  321 11160.0000 10836.7030  2.90%     -    2s
     0     0 10836.7116    0  318 11160.0000 10836.7116  2.90%     -    2s
H    0     0                    11024.000000 10836.7116  1.70%     -    2s
     0     0 10845.2168    0  305 11024.0000 10845.2168  1.62%     -    2s
H    0     0                    11020.000000 10845.2168  1.59%     -    2s
     0     0 10850.3883    0  314 11020.0000 10850.3883  1.54%     -    3s
     0     0 10852.0329    0  315 11020.0000 10852.0329  1.52%     -    3s
     0     0 10852.3196    0  318 11020.0000 10852.3196  1.52%     -    3s
     0     0 10852.4262    0  327 11020.0000 10852.4262  1.52%     -    3s
     0     0 10852.4323    0  324 11020.0000 10852.4323  1.52%     -    3s
     0     0 10854.4197    0  330 11020.0000 10854.4197  1.50%     -    3s
H    0     0                    11012.000000 10854.4197  1.43%     -    3s
     0     0 10855.4561    0  334 11012.0000 10855.4561  1.42%     -    3s
     0     0 10855.5976    0  342 11012.0000 10855.5976  1.42%     -    3s
     0     0 10855.6038    0  340 11012.0000 10855.6038  1.42%     -    3s
H    0     0                    11008.000000 10855.6038  1.38%     -    3s
     0     0 10858.2624    0  337 11008.0000 10858.2624  1.36%     -    3s
     0     0 10858.9695    0  362 11008.0000 10858.9695  1.35%     -    3s
     0     0 10859.1244    0  360 11008.0000 10859.1244  1.35%     -    3s
     0     0 10859.1305    0  362 11008.0000 10859.1305  1.35%     -    3s
H    0     0                    11004.000000 10859.1305  1.32%     -    3s
     0     0 10861.2377    0  364 11004.0000 10861.2377  1.30%     -    3s
     0     0 10861.5502    0  354 11004.0000 10861.5502  1.29%     -    3s
     0     0 10861.6085    0  368 11004.0000 10861.6085  1.29%     -    3s
     0     0 10864.1265    0  349 11004.0000 10864.1265  1.27%     -    3s
     0     0 10864.9025    0  357 11004.0000 10864.9025  1.26%     -    3s
     0     0 10865.1511    0  364 11004.0000 10865.1511  1.26%     -    3s
     0     0 10865.2113    0  370 11004.0000 10865.2113  1.26%     -    3s
     0     0 10866.3795    0  371 11004.0000 10866.3795  1.25%     -    3s
     0     0 10866.4075    0  380 11004.0000 10866.4075  1.25%     -    3s
H    0     0                    10992.000000 10866.4075  1.14%     -    4s
     0     0 10866.8249    0  352 10992.0000 10866.8249  1.14%     -    4s
     0     0 10866.8249    0  334 10992.0000 10866.8249  1.14%     -    4s
     0     2 10866.9204    0  316 10992.0000 10866.9204  1.14%     -    4s
    15    24 10882.4579    4  371 10992.0000 10872.4155  1.09%  1192    5s
H   70    66                    10988.000000 10879.0215  0.99%   886    6s
   482   275 infeasible   11      10988.0000 10888.6889  0.90%   522   10s
  1146   513 10975.7434    7  293 10988.0000 10896.2172  0.84%   439   15s

Cutting planes:
  Gomory: 2
  Cover: 43
  Clique: 135
  MIR: 129
  StrongCG: 80
  GUB cover: 90
  Inf proof: 1
  Zero half: 40
  RLT: 11

Explored 1332 nodes (607672 simplex iterations) in 16.01 seconds (46.83 work units)
Thread count was 8 (of 8 available processors)

Solution count 10: 10988 10992 11004 ... 11340

Time limit reached
Best objective 1.098800000000e+04, best bound 1.090000000000e+04, gap 0.8009%

Gurobi 9.5.2 (mac64[arm]) logging started Thu Apr 27 19:50:57 2023

Set parameter LogFile to value "Java/output/iterative_model_full/scenario_seed_0_nJob_50_machineCount_1/mip_increment_1/log.txt"
Gurobi Optimizer version 9.5.2 build v9.5.2rc0 (mac64[arm])
Thread count: 8 physical cores, 8 logical processors, using up to 8 threads
Optimize a model with 3012 rows, 14289 columns and 171644 nonzeros
Model fingerprint: 0x104a87c9
Variable types: 0 continuous, 14289 integer (14289 binary)
Coefficient statistics:
  Matrix range     [1e+00, 5e+02]
  Objective range  [2e+02, 7e+05]
  Bounds range     [1e+00, 1e+00]
  RHS range        [1e+00, 1e+00]
Presolve removed 1290 rows and 795 columns
Presolve time: 0.18s
Presolved: 1722 rows, 13494 columns, 160256 nonzeros
Variable types: 0 continuous, 13494 integer (13486 binary)

Root relaxation: objective 4.855968e+03, 4463 iterations, 0.27 seconds (0.57 work units)

    Nodes    |    Current Node    |     Objective Bounds      |     Work
 Expl Unexpl |  Obj  Depth IntInf | Incumbent    BestBd   Gap | It/Node Time

     0     0 4855.96752    0  113          - 4855.96752      -     -    0s
H    0     0                    1872482.0000 4855.96752   100%     -    0s
H    0     0                    896030.00000 4855.96752  99.5%     -    0s
H    0     0                    142705.00000 4860.65336  96.6%     -    0s
H    0     0                    142184.00000 4860.65336  96.6%     -    0s
     0     0 4860.65336    0  159 142184.000 4860.65336  96.6%     -    0s
H    0     0                    141993.00000 4860.65336  96.6%     -    0s
     0     0 4861.54665    0  150 141993.000 4861.54665  96.6%     -    0s
     0     0 4861.61300    0  156 141993.000 4861.61300  96.6%     -    1s
     0     0 4862.90683    0  220 141993.000 4862.90683  96.6%     -    1s
H    0     0                    141992.00000 4862.90683  96.6%     -    1s
H    0     0                    141988.00000 4862.90683  96.6%     -    1s
H    0     0                    82509.000000 4862.90683  94.1%     -    1s
H    0     0                    43200.000000 4862.90861  88.7%     -    1s
     0     0 4862.90861    0  224 43200.0000 4862.90861  88.7%     -    1s
     0     0 4862.90861    0  220 43200.0000 4862.90861  88.7%     -    1s
H    0     0                    4956.0000000 4864.61348  1.84%     -    1s
     0     0 4864.61348    0  208 4956.00000 4864.61348  1.84%     -    1s
H    0     0                    4954.0000000 4864.61348  1.80%     -    1s
H    0     0                    4950.0000000 4864.61348  1.72%     -    1s
H    0     0                    4941.0000000 4864.61348  1.55%     -    1s
     0     0 4865.34358    0  210 4941.00000 4865.34358  1.53%     -    1s
     0     0 4865.77177    0  217 4941.00000 4865.77177  1.52%     -    1s
     0     0 4865.79510    0  208 4941.00000 4865.79510  1.52%     -    1s
     0     0 4865.79510    0  208 4941.00000 4865.79510  1.52%     -    1s
     0     0 4866.88857    0  223 4941.00000 4866.88857  1.50%     -    2s
     0     0 4866.88857    0  124 4941.00000 4866.88857  1.50%     -    2s
H    0     0                    4935.0000000 4866.88857  1.38%     -    2s
     0     0 4866.88857    0  216 4935.00000 4866.88857  1.38%     -    2s
     0     0 4867.02159    0  220 4935.00000 4867.02159  1.38%     -    2s
     0     0 4867.02831    0  229 4935.00000 4867.02831  1.38%     -    3s
     0     0 4867.03030    0  232 4935.00000 4867.03030  1.38%     -    3s
     0     0 4868.32156    0  256 4935.00000 4868.32156  1.35%     -    3s
     0     0 4868.44166    0  259 4935.00000 4868.44166  1.35%     -    3s
     0     0 4868.46862    0  258 4935.00000 4868.46862  1.35%     -    3s
     0     0 4868.48334    0  270 4935.00000 4868.48334  1.35%     -    3s
     0     0 4868.48420    0  270 4935.00000 4868.48420  1.35%     -    3s
H    0     0                    4933.0000000 4868.48420  1.31%     -    3s
     0     0 4869.43653    0  329 4933.00000 4869.43653  1.29%     -    3s
H    0     0                    4932.0000000 4869.43653  1.27%     -    3s
H    0     0                    4930.0000000 4869.43653  1.23%     -    3s
H    0     0                    4926.0000000 4869.43653  1.15%     -    3s
     0     0 4869.96676    0  336 4926.00000 4869.96676  1.14%     -    3s
     0     0 4870.05027    0  341 4926.00000 4870.05027  1.14%     -    3s
     0     0 4870.05694    0  353 4926.00000 4870.05694  1.14%     -    3s
     0     0 4870.05734    0  355 4926.00000 4870.05734  1.14%     -    3s
     0     0 4870.79907    0  326 4926.00000 4870.79907  1.12%     -    4s
H    0     0                    4925.0000000 4870.79907  1.10%     -    4s
H    0     0                    4924.0000000 4870.79907  1.08%     -    4s
     0     0 4871.19734    0  367 4924.00000 4871.19734  1.07%     -    4s
     0     0 4871.49347    0  398 4924.00000 4871.49347  1.07%     -    4s
     0     0 4871.60926    0  396 4924.00000 4871.60926  1.06%     -    4s
     0     0 4871.62617    0  391 4924.00000 4871.62617  1.06%     -    4s
     0     0 4871.63676    0  402 4924.00000 4871.63676  1.06%     -    4s
     0     0 4871.63714    0  404 4924.00000 4871.63714  1.06%     -    4s
     0     0 4871.88448    0  425 4924.00000 4871.88448  1.06%     -    4s
H    0     0                    4920.0000000 4871.88448  0.98%     -    4s
     0     0 4871.99273    0  420 4920.00000 4871.99273  0.98%     -    4s
     0     0 4872.03522    0  433 4920.00000 4872.03522  0.97%     -    4s
     0     0 4872.06304    0  440 4920.00000 4872.06304  0.97%     -    4s
     0     0 4872.07800    0  438 4920.00000 4872.07800  0.97%     -    4s
     0     0 4872.07800    0  438 4920.00000 4872.07800  0.97%     -    4s
     0     0 4872.33062    0  414 4920.00000 4872.33062  0.97%     -    4s
     0     0 4872.41055    0  410 4920.00000 4872.41055  0.97%     -    4s
     0     0 4872.43162    0  420 4920.00000 4872.43162  0.97%     -    4s
     0     0 4872.43687    0  425 4920.00000 4872.43687  0.97%     -    4s
     0     0 4872.63745    0  435 4920.00000 4872.63745  0.96%     -    5s
     0     0 4872.67991    0  417 4920.00000 4872.67991  0.96%     -    5s
     0     0 4872.69531    0  417 4920.00000 4872.69531  0.96%     -    5s
     0     0 4872.69845    0  418 4920.00000 4872.69845  0.96%     -    5s
     0     0 4872.87774    0  443 4920.00000 4872.87774  0.96%     -    5s
H    0     0                    4919.0000000 4872.87774  0.94%     -    5s
     0     0 4872.91974    0  455 4919.00000 4872.91974  0.94%     -    5s
     0     0 4872.93643    0  450 4919.00000 4872.93643  0.94%     -    5s
     0     0 4872.94302    0  447 4919.00000 4872.94302  0.94%     -    5s
     0     0 4873.03884    0  436 4919.00000 4873.03884  0.93%     -    5s
     0     0 4873.09236    0  445 4919.00000 4873.09236  0.93%     -    5s
     0     0 4873.10734    0  451 4919.00000 4873.10734  0.93%     -    5s
     0     0 4873.11079    0  450 4919.00000 4873.11079  0.93%     -    5s
     0     0 4873.59099    0  423 4919.00000 4873.59099  0.92%     -    5s
     0     0 4873.69311    0  434 4919.00000 4873.69311  0.92%     -    5s
     0     0 4873.72556    0  446 4919.00000 4873.72556  0.92%     -    5s
H    0     0                    4914.0000000 4873.72556  0.82%     -    5s
     0     0 4873.74437    0  443 4914.00000 4873.74437  0.82%     -    5s
     0     0 4873.75012    0  446 4914.00000 4873.75012  0.82%     -    5s
     0     0 4873.93104    0  443 4914.00000 4873.93104  0.82%     -    5s
     0     0 4873.98347    0  460 4914.00000 4873.98347  0.81%     -    5s
     0     0 4874.00052    0  467 4914.00000 4874.00052  0.81%     -    5s
     0     0 4874.00455    0  470 4914.00000 4874.00455  0.81%     -    5s
     0     0 4874.13372    0  451 4914.00000 4874.13372  0.81%     -    6s
     0     0 4874.22867    0  462 4914.00000 4874.22867  0.81%     -    6s
     0     0 4874.23996    0  467 4914.00000 4874.23996  0.81%     -    6s
     0     0 4874.31954    0  467 4914.00000 4874.31954  0.81%     -    6s
     0     0 4874.35899    0  458 4914.00000 4874.35899  0.81%     -    6s
     0     0 4874.37100    0  462 4914.00000 4874.37100  0.81%     -    6s
     0     0 4874.67931    0  462 4914.00000 4874.67931  0.80%     -    6s
     0     0 4874.76181    0  470 4914.00000 4874.76181  0.80%     -    6s
     0     0 4874.78408    0  464 4914.00000 4874.78408  0.80%     -    6s
     0     0 4874.79173    0  470 4914.00000 4874.79173  0.80%     -    6s
     0     0 4874.82834    0  472 4914.00000 4874.82834  0.80%     -    6s
     0     0 4874.83605    0  484 4914.00000 4874.83605  0.80%     -    6s
     0     0 4874.85958    0  478 4914.00000 4874.85958  0.80%     -    6s
     0     0 4874.85958    0  456 4914.00000 4874.85958  0.80%     -    7s
     0     2 4874.87058    0  456 4914.00000 4874.87058  0.80%     -    7s
    31    40 4881.14296    5  438 4914.00000 4877.63008  0.74%  1622   10s
H   32    40                    4911.0000000 4877.63008  0.68%  1572   10s
H   65    74                    4909.0000000 4878.42178  0.62%  1443   11s
H  151   136                    4905.0000000 4878.42178  0.54%  1127   13s
H  158   148                    4901.0000000 4878.42178  0.46%  1123   13s
   256   232 4884.67518   18  346 4901.00000 4878.68526  0.46%  1051   15s
H  271   232                    4900.0000000 4878.68526  0.43%  1037   15s

Cutting planes:
  Gomory: 2
  Cover: 8
  Clique: 133
  MIR: 168
  StrongCG: 91
  GUB cover: 103
  Zero half: 14
  Mod-K: 5
  RLT: 6
  Relax-and-lift: 1

Explored 348 nodes (373258 simplex iterations) in 16.01 seconds (41.23 work units)
Thread count was 8 (of 8 available processors)

Solution count 10: 4900 4901 4905 ... 4925

Time limit reached
Best objective 4.900000000000e+03, best bound 4.879000000000e+03, gap 0.4286%
